Route 1: 0 49 41 31 58 99 52 25 73 95 0
Route 2: 0 83 86 63 78 22 80 0
Route 3: 0 97 18 33 61 93 68 26 7 0
Route 4: 0 48 35 20 8 60 53 17 11 54 57 72 0
Route 5: 0 76 13 12 15 70 85 0
Route 6: 0 4 46 75 29 94 45 0
Route 7: 0 6 67 74 98 30 42 65 89 66 10 87 0
Route 8: 0 81 27 44 39 34 79 91 5 36 0
Route 9: 0 23 37 62 1 100 90 19 32 9 0
Route 10: 0 84 14 96 56 51 40 88 50 47 0
Route 11: 0 64 59 24 28 69 43 2 0
Route 12: 0 38 71 21 3 77 16 55 92 82 0
